; benchmark generated from python API
(set-info :status unknown)
(declare-fun x_epoch () (_ BitVec 32))
(declare-fun x_plus_epoch () (_ BitVec 32))
(declare-fun x_plus_month () (_ BitVec 32))
(declare-fun x_plus_year () (_ BitVec 32))
(declare-fun x_plus_day () (_ BitVec 32))
(declare-fun x_plus_1_epoch () (_ BitVec 32))
(assert
 (bvsle (_ bv4294930771 32) x_epoch))
(assert
 (bvsge (_ bv36523 32) x_epoch))
(assert
 (bvsge x_epoch (_ bv8341 32)))
(assert
 (bvsle x_epoch (_ bv8371 32)))
(assert
 (bvsle (_ bv4294930771 32) x_plus_epoch))
(assert
 (bvsge (_ bv36523 32) x_plus_epoch))
(assert
 (let (($x2508 (= x_plus_month (_ bv11 32))))
 (let (($x8138 (= x_plus_month (_ bv9 32))))
 (let (($x3393 (= x_plus_month (_ bv6 32))))
 (let (($x2214 (= x_plus_month (_ bv4 32))))
 (let ((?x7553 (ite (or $x2214 $x3393 $x8138 $x2508) (_ bv30 32) (_ bv31 32))))
 (let (($x1408 (and (= (bvsmod x_plus_year (_ bv4 32)) (_ bv0 32)) (and (distinct (bvsmod x_plus_year (_ bv100 32)) (_ bv0 32)) true))))
 (let (($x1516 (or $x1408 (= (bvsmod x_plus_year (_ bv400 32)) (_ bv0 32)))))
 (let (($x4486 (= x_plus_month (_ bv2 32))))
 (let (($x1138 (bvsle (_ bv1 32) x_plus_day)))
 (let (($x2456 (bvsle (_ bv1 32) x_plus_month)))
 (let (($x3273 (bvsle (_ bv1900 32) x_plus_year)))
 (and $x3273 (bvsge (_ bv2100 32) x_plus_year) $x2456 (bvsge (_ bv12 32) x_plus_month) $x1138 (bvsle x_plus_day (ite $x4486 (ite $x1516 (_ bv29 32) (_ bv28 32)) ?x7553)))))))))))))))
(assert
 (let (($x1408 (and (= (bvsmod x_plus_year (_ bv4 32)) (_ bv0 32)) (and (distinct (bvsmod x_plus_year (_ bv100 32)) (_ bv0 32)) true))))
 (let (($x1516 (or $x1408 (= (bvsmod x_plus_year (_ bv400 32)) (_ bv0 32)))))
 (let ((?x3062 (ite (= (_ bv2 32) x_plus_month) (ite $x1516 (_ bv31 32) (_ bv31 32)) (ite (= (_ bv1 32) x_plus_month) (ite $x1516 (_ bv0 32) (_ bv0 32)) (_ bv0 32)))))
 (let ((?x5284 (ite (= (_ bv4 32) x_plus_month) (ite $x1516 (_ bv91 32) (_ bv90 32)) (ite (= (_ bv3 32) x_plus_month) (ite $x1516 (_ bv60 32) (_ bv59 32)) ?x3062))))
 (let ((?x1618 (ite (= (_ bv6 32) x_plus_month) (ite $x1516 (_ bv152 32) (_ bv151 32)) (ite (= (_ bv5 32) x_plus_month) (ite $x1516 (_ bv121 32) (_ bv120 32)) ?x5284))))
 (let ((?x5063 (ite (= (_ bv8 32) x_plus_month) (ite $x1516 (_ bv213 32) (_ bv212 32)) (ite (= (_ bv7 32) x_plus_month) (ite $x1516 (_ bv182 32) (_ bv181 32)) ?x1618))))
 (let ((?x877 (ite (= (_ bv10 32) x_plus_month) (ite $x1516 (_ bv274 32) (_ bv273 32)) (ite (= (_ bv9 32) x_plus_month) (ite $x1516 (_ bv244 32) (_ bv243 32)) ?x5063))))
 (let ((?x5437 (ite (= (_ bv12 32) x_plus_month) (ite $x1516 (_ bv335 32) (_ bv334 32)) (ite (= (_ bv11 32) x_plus_month) (ite $x1516 (_ bv305 32) (_ bv304 32)) ?x877))))
 (let ((?x3923 (bvadd (bvmul (_ bv365 32) (bvsub x_plus_year (_ bv1 32))) (bvsdiv (bvsub x_plus_year (_ bv1 32)) (_ bv4 32)))))
 (let ((?x2076 (bvadd (bvsub ?x3923 (bvsdiv (bvsub x_plus_year (_ bv1 32)) (_ bv100 32))) (bvsdiv (bvsub x_plus_year (_ bv1 32)) (_ bv400 32)))))
 (= x_plus_epoch (bvsub (bvadd (bvadd ?x2076 ?x5437) (bvsub x_plus_day (_ bv1 32))) (_ bv730179 32))))))))))))))
(assert
 (let ((?x1201 (bvadd x_epoch (_ bv730179 32))))
 (let ((?x33573 (bvsmod ?x1201 (_ bv146097 32))))
 (let ((?x2516 (bvsdiv ?x33573 (_ bv36524 32))))
 (let ((?x15886 (ite (bvsle (_ bv4 32) ?x2516) (_ bv3 32) ?x2516)))
 (let ((?x8168 (bvsub ?x33573 (bvmul ?x15886 (_ bv36524 32)))))
 (let ((?x1140 (bvsmod ?x8168 (_ bv1461 32))))
 (let ((?x1161 (bvsdiv ?x1140 (_ bv365 32))))
 (let ((?x11749 (ite (bvsle (_ bv4 32) ?x1161) (_ bv3 32) ?x1161)))
 (let ((?x3564 (bvadd (bvadd (bvmul (bvsdiv ?x1201 (_ bv146097 32)) (_ bv400 32)) (bvmul ?x15886 (_ bv100 32))) (bvmul (bvsdiv ?x8168 (_ bv1461 32)) (_ bv4 32)))))
 (let ((?x26236 (bvadd (bvadd ?x3564 ?x11749) (_ bv1 32))))
 (let (($x11908 (or (and (= (bvsmod ?x26236 (_ bv4 32)) (_ bv0 32)) (and (distinct (bvsmod ?x26236 (_ bv100 32)) (_ bv0 32)) true)) (= (bvsmod ?x26236 (_ bv400 32)) (_ bv0 32)))))
 (let ((?x2337 (bvsub ?x1140 (bvmul ?x11749 (_ bv365 32)))))
 (let ((?x3734 (ite $x11908 (_ bv31 32) (_ bv31 32))))
 (let (($x5366 (bvsge ?x2337 ?x3734)))
 (let ((?x5792 (ite $x5366 (bvadd (bvsub ?x2337 ?x3734) (_ bv1 32)) (bvadd (bvsub ?x2337 (ite $x11908 (_ bv0 32) (_ bv0 32))) (_ bv1 32)))))
 (let ((?x47417 (ite $x11908 (_ bv60 32) (_ bv59 32))))
 (let (($x805 (bvsge ?x2337 ?x47417)))
 (let ((?x2296 (ite $x11908 (_ bv91 32) (_ bv90 32))))
 (let (($x3364 (bvsge ?x2337 ?x2296)))
 (let ((?x20760 (ite $x3364 (bvadd (bvsub ?x2337 ?x2296) (_ bv1 32)) (ite $x805 (bvadd (bvsub ?x2337 ?x47417) (_ bv1 32)) ?x5792))))
 (let ((?x37289 (ite $x11908 (_ bv121 32) (_ bv120 32))))
 (let (($x1945 (bvsge ?x2337 ?x37289)))
 (let ((?x2125 (ite $x11908 (_ bv152 32) (_ bv151 32))))
 (let (($x5091 (bvsge ?x2337 ?x2125)))
 (let ((?x5445 (ite $x5091 (bvadd (bvsub ?x2337 ?x2125) (_ bv1 32)) (ite $x1945 (bvadd (bvsub ?x2337 ?x37289) (_ bv1 32)) ?x20760))))
 (let ((?x1626 (ite $x11908 (_ bv182 32) (_ bv181 32))))
 (let (($x583 (bvsge ?x2337 ?x1626)))
 (let ((?x3068 (ite $x11908 (_ bv213 32) (_ bv212 32))))
 (let (($x2937 (bvsge ?x2337 ?x3068)))
 (let ((?x701 (ite $x2937 (bvadd (bvsub ?x2337 ?x3068) (_ bv1 32)) (ite $x583 (bvadd (bvsub ?x2337 ?x1626) (_ bv1 32)) ?x5445))))
 (let ((?x1549 (ite $x11908 (_ bv244 32) (_ bv243 32))))
 (let (($x2961 (bvsge ?x2337 ?x1549)))
 (let ((?x8141 (ite $x11908 (_ bv274 32) (_ bv273 32))))
 (let (($x2577 (bvsge ?x2337 ?x8141)))
 (let ((?x596 (ite $x2577 (bvadd (bvsub ?x2337 ?x8141) (_ bv1 32)) (ite $x2961 (bvadd (bvsub ?x2337 ?x1549) (_ bv1 32)) ?x701))))
 (let ((?x903 (ite $x11908 (_ bv305 32) (_ bv304 32))))
 (let (($x1761 (bvsge ?x2337 ?x903)))
 (let ((?x6357 (ite $x11908 (_ bv335 32) (_ bv334 32))))
 (let (($x783 (bvsge ?x2337 ?x6357)))
 (let ((?x42519 (ite $x783 (bvadd (bvsub ?x2337 ?x6357) (_ bv1 32)) (ite $x1761 (bvadd (bvsub ?x2337 ?x903) (_ bv1 32)) ?x596))))
 (let ((?x7854 (bvadd (bvmul (_ bv0 32) (_ bv12 32)) (_ bv1 32))))
 (let ((?x61399 (ite $x5091 (_ bv6 32) (ite $x1945 (_ bv5 32) (ite $x3364 (_ bv4 32) (ite $x805 (_ bv3 32) (ite $x5366 (_ bv2 32) (_ bv1 32))))))))
 (let ((?x6068 (ite $x1761 (_ bv11 32) (ite $x2577 (_ bv10 32) (ite $x2961 (_ bv9 32) (ite $x2937 (_ bv8 32) (ite $x583 (_ bv7 32) ?x61399)))))))
 (let ((?x11059 (ite $x783 (_ bv12 32) ?x6068)))
 (let ((?x1118 (bvadd ?x11059 ?x7854)))
 (let ((?x3973 (bvsub (ite (bvuge ?x1118 (_ bv2147483648 32)) (bvsub ?x1118 (_ bv0 32)) ?x1118) (_ bv1 32))))
 (let ((?x7263 (bvsmod ?x3973 (_ bv12 32))))
 (let ((?x3600 (bvadd ?x7263 (_ bv1 32))))
 (let ((?x3476 (ite (or (= ?x3600 (_ bv4 32)) (= ?x3600 (_ bv6 32)) (= ?x3600 (_ bv9 32)) (= ?x3600 (_ bv11 32))) (_ bv30 32) (_ bv31 32))))
 (let ((?x2769 (bvsdiv ?x3973 (_ bv12 32))))
 (let ((?x6867 (ite (and (bvuge ?x3973 (_ bv2147483648 32)) (and (distinct (_ bv0 32) ?x7263) true)) (bvsub ?x2769 (_ bv1 32)) ?x2769)))
 (let ((?x28626 (bvadd (_ bv0 32) ?x6867)))
 (let ((?x4154 (bvadd ?x26236 ?x28626)))
 (let (($x61634 (or (and (= (bvsmod ?x4154 (_ bv4 32)) (_ bv0 32)) (and (distinct (bvsmod ?x4154 (_ bv100 32)) (_ bv0 32)) true)) (= (bvsmod ?x4154 (_ bv400 32)) (_ bv0 32)))))
 (let ((?x6093 (ite (= ?x3600 (_ bv2 32)) (ite $x61634 (_ bv29 32) (_ bv28 32)) ?x3476)))
 (let ((?x3713 (ite (bvsgt (_ bv1 32) ?x42519) (_ bv1 32) (ite (bvsgt ?x42519 ?x6093) ?x6093 ?x42519))))
 (let ((?x5160 (ite (bvsgt (_ bv1 32) ?x3713) (_ bv1 32) (ite (bvsgt ?x3713 ?x6093) ?x6093 ?x3713))))
 (let ((?x8246 (ite (= (_ bv2 32) ?x3600) (ite $x61634 (_ bv31 32) (_ bv31 32)) (ite (= (_ bv1 32) ?x3600) (ite $x61634 (_ bv0 32) (_ bv0 32)) (_ bv0 32)))))
 (let ((?x15725 (ite (= (_ bv4 32) ?x3600) (ite $x61634 (_ bv91 32) (_ bv90 32)) (ite (= (_ bv3 32) ?x3600) (ite $x61634 (_ bv60 32) (_ bv59 32)) ?x8246))))
 (let ((?x15656 (ite (= (_ bv6 32) ?x3600) (ite $x61634 (_ bv152 32) (_ bv151 32)) (ite (= (_ bv5 32) ?x3600) (ite $x61634 (_ bv121 32) (_ bv120 32)) ?x15725))))
 (let ((?x3161 (ite (= (_ bv8 32) ?x3600) (ite $x61634 (_ bv213 32) (_ bv212 32)) (ite (= (_ bv7 32) ?x3600) (ite $x61634 (_ bv182 32) (_ bv181 32)) ?x15656))))
 (let ((?x6975 (ite (= (_ bv10 32) ?x3600) (ite $x61634 (_ bv274 32) (_ bv273 32)) (ite (= (_ bv9 32) ?x3600) (ite $x61634 (_ bv244 32) (_ bv243 32)) ?x3161))))
 (let ((?x2778 (ite (= (_ bv12 32) ?x3600) (ite $x61634 (_ bv335 32) (_ bv334 32)) (ite (= (_ bv11 32) ?x3600) (ite $x61634 (_ bv305 32) (_ bv304 32)) ?x6975))))
 (let ((?x3461 (bvadd (bvmul (_ bv365 32) (bvsub ?x4154 (_ bv1 32))) (bvsdiv (bvsub ?x4154 (_ bv1 32)) (_ bv4 32)))))
 (let ((?x20706 (bvadd (bvsub ?x3461 (bvsdiv (bvsub ?x4154 (_ bv1 32)) (_ bv100 32))) (bvsdiv (bvsub ?x4154 (_ bv1 32)) (_ bv400 32)))))
 (let ((?x24318 (bvadd (bvadd (bvsub (bvadd (bvadd ?x20706 ?x2778) (bvsub ?x5160 (_ bv1 32))) (_ bv730179 32)) (_ bv0 32)) (_ bv730179 32))))
 (let ((?x6996 (bvsmod ?x24318 (_ bv146097 32))))
 (let ((?x4836 (bvsdiv ?x6996 (_ bv36524 32))))
 (let ((?x4790 (ite (bvsle (_ bv4 32) ?x4836) (_ bv3 32) ?x4836)))
 (let ((?x24303 (bvsub ?x6996 (bvmul ?x4790 (_ bv36524 32)))))
 (let ((?x3516 (bvsmod ?x24303 (_ bv1461 32))))
 (let ((?x19938 (bvsdiv ?x3516 (_ bv365 32))))
 (let ((?x40932 (ite (bvsle (_ bv4 32) ?x19938) (_ bv3 32) ?x19938)))
 (let ((?x15664 (bvadd (bvadd (bvmul (bvsdiv ?x24318 (_ bv146097 32)) (_ bv400 32)) (bvmul ?x4790 (_ bv100 32))) (bvmul (bvsdiv ?x24303 (_ bv1461 32)) (_ bv4 32)))))
 (let ((?x3153 (bvadd (bvadd ?x15664 ?x40932) (_ bv1 32))))
 (let (($x11357 (= (_ bv0 32) (_ bv0 32))))
 (let ((?x19839 (ite $x11357 ?x4154 ?x3153)))
 (= x_plus_year ?x19839)))))))))))))))))))))))))))))))))))))))))))))))))))))))))))))))))))))))))))))))
(assert
 (let ((?x1201 (bvadd x_epoch (_ bv730179 32))))
 (let ((?x33573 (bvsmod ?x1201 (_ bv146097 32))))
 (let ((?x2516 (bvsdiv ?x33573 (_ bv36524 32))))
 (let ((?x15886 (ite (bvsle (_ bv4 32) ?x2516) (_ bv3 32) ?x2516)))
 (let ((?x8168 (bvsub ?x33573 (bvmul ?x15886 (_ bv36524 32)))))
 (let ((?x1140 (bvsmod ?x8168 (_ bv1461 32))))
 (let ((?x1161 (bvsdiv ?x1140 (_ bv365 32))))
 (let ((?x11749 (ite (bvsle (_ bv4 32) ?x1161) (_ bv3 32) ?x1161)))
 (let ((?x3564 (bvadd (bvadd (bvmul (bvsdiv ?x1201 (_ bv146097 32)) (_ bv400 32)) (bvmul ?x15886 (_ bv100 32))) (bvmul (bvsdiv ?x8168 (_ bv1461 32)) (_ bv4 32)))))
 (let ((?x26236 (bvadd (bvadd ?x3564 ?x11749) (_ bv1 32))))
 (let (($x11908 (or (and (= (bvsmod ?x26236 (_ bv4 32)) (_ bv0 32)) (and (distinct (bvsmod ?x26236 (_ bv100 32)) (_ bv0 32)) true)) (= (bvsmod ?x26236 (_ bv400 32)) (_ bv0 32)))))
 (let ((?x2337 (bvsub ?x1140 (bvmul ?x11749 (_ bv365 32)))))
 (let ((?x3734 (ite $x11908 (_ bv31 32) (_ bv31 32))))
 (let (($x5366 (bvsge ?x2337 ?x3734)))
 (let ((?x5792 (ite $x5366 (bvadd (bvsub ?x2337 ?x3734) (_ bv1 32)) (bvadd (bvsub ?x2337 (ite $x11908 (_ bv0 32) (_ bv0 32))) (_ bv1 32)))))
 (let ((?x47417 (ite $x11908 (_ bv60 32) (_ bv59 32))))
 (let (($x805 (bvsge ?x2337 ?x47417)))
 (let ((?x2296 (ite $x11908 (_ bv91 32) (_ bv90 32))))
 (let (($x3364 (bvsge ?x2337 ?x2296)))
 (let ((?x20760 (ite $x3364 (bvadd (bvsub ?x2337 ?x2296) (_ bv1 32)) (ite $x805 (bvadd (bvsub ?x2337 ?x47417) (_ bv1 32)) ?x5792))))
 (let ((?x37289 (ite $x11908 (_ bv121 32) (_ bv120 32))))
 (let (($x1945 (bvsge ?x2337 ?x37289)))
 (let ((?x2125 (ite $x11908 (_ bv152 32) (_ bv151 32))))
 (let (($x5091 (bvsge ?x2337 ?x2125)))
 (let ((?x5445 (ite $x5091 (bvadd (bvsub ?x2337 ?x2125) (_ bv1 32)) (ite $x1945 (bvadd (bvsub ?x2337 ?x37289) (_ bv1 32)) ?x20760))))
 (let ((?x1626 (ite $x11908 (_ bv182 32) (_ bv181 32))))
 (let (($x583 (bvsge ?x2337 ?x1626)))
 (let ((?x3068 (ite $x11908 (_ bv213 32) (_ bv212 32))))
 (let (($x2937 (bvsge ?x2337 ?x3068)))
 (let ((?x701 (ite $x2937 (bvadd (bvsub ?x2337 ?x3068) (_ bv1 32)) (ite $x583 (bvadd (bvsub ?x2337 ?x1626) (_ bv1 32)) ?x5445))))
 (let ((?x1549 (ite $x11908 (_ bv244 32) (_ bv243 32))))
 (let (($x2961 (bvsge ?x2337 ?x1549)))
 (let ((?x8141 (ite $x11908 (_ bv274 32) (_ bv273 32))))
 (let (($x2577 (bvsge ?x2337 ?x8141)))
 (let ((?x596 (ite $x2577 (bvadd (bvsub ?x2337 ?x8141) (_ bv1 32)) (ite $x2961 (bvadd (bvsub ?x2337 ?x1549) (_ bv1 32)) ?x701))))
 (let ((?x903 (ite $x11908 (_ bv305 32) (_ bv304 32))))
 (let (($x1761 (bvsge ?x2337 ?x903)))
 (let ((?x6357 (ite $x11908 (_ bv335 32) (_ bv334 32))))
 (let (($x783 (bvsge ?x2337 ?x6357)))
 (let ((?x42519 (ite $x783 (bvadd (bvsub ?x2337 ?x6357) (_ bv1 32)) (ite $x1761 (bvadd (bvsub ?x2337 ?x903) (_ bv1 32)) ?x596))))
 (let ((?x7854 (bvadd (bvmul (_ bv0 32) (_ bv12 32)) (_ bv1 32))))
 (let ((?x61399 (ite $x5091 (_ bv6 32) (ite $x1945 (_ bv5 32) (ite $x3364 (_ bv4 32) (ite $x805 (_ bv3 32) (ite $x5366 (_ bv2 32) (_ bv1 32))))))))
 (let ((?x6068 (ite $x1761 (_ bv11 32) (ite $x2577 (_ bv10 32) (ite $x2961 (_ bv9 32) (ite $x2937 (_ bv8 32) (ite $x583 (_ bv7 32) ?x61399)))))))
 (let ((?x11059 (ite $x783 (_ bv12 32) ?x6068)))
 (let ((?x1118 (bvadd ?x11059 ?x7854)))
 (let ((?x3973 (bvsub (ite (bvuge ?x1118 (_ bv2147483648 32)) (bvsub ?x1118 (_ bv0 32)) ?x1118) (_ bv1 32))))
 (let ((?x7263 (bvsmod ?x3973 (_ bv12 32))))
 (let ((?x3600 (bvadd ?x7263 (_ bv1 32))))
 (let ((?x3476 (ite (or (= ?x3600 (_ bv4 32)) (= ?x3600 (_ bv6 32)) (= ?x3600 (_ bv9 32)) (= ?x3600 (_ bv11 32))) (_ bv30 32) (_ bv31 32))))
 (let ((?x2769 (bvsdiv ?x3973 (_ bv12 32))))
 (let ((?x6867 (ite (and (bvuge ?x3973 (_ bv2147483648 32)) (and (distinct (_ bv0 32) ?x7263) true)) (bvsub ?x2769 (_ bv1 32)) ?x2769)))
 (let ((?x28626 (bvadd (_ bv0 32) ?x6867)))
 (let ((?x4154 (bvadd ?x26236 ?x28626)))
 (let (($x61634 (or (and (= (bvsmod ?x4154 (_ bv4 32)) (_ bv0 32)) (and (distinct (bvsmod ?x4154 (_ bv100 32)) (_ bv0 32)) true)) (= (bvsmod ?x4154 (_ bv400 32)) (_ bv0 32)))))
 (let ((?x6093 (ite (= ?x3600 (_ bv2 32)) (ite $x61634 (_ bv29 32) (_ bv28 32)) ?x3476)))
 (let ((?x3713 (ite (bvsgt (_ bv1 32) ?x42519) (_ bv1 32) (ite (bvsgt ?x42519 ?x6093) ?x6093 ?x42519))))
 (let ((?x5160 (ite (bvsgt (_ bv1 32) ?x3713) (_ bv1 32) (ite (bvsgt ?x3713 ?x6093) ?x6093 ?x3713))))
 (let ((?x8246 (ite (= (_ bv2 32) ?x3600) (ite $x61634 (_ bv31 32) (_ bv31 32)) (ite (= (_ bv1 32) ?x3600) (ite $x61634 (_ bv0 32) (_ bv0 32)) (_ bv0 32)))))
 (let ((?x15725 (ite (= (_ bv4 32) ?x3600) (ite $x61634 (_ bv91 32) (_ bv90 32)) (ite (= (_ bv3 32) ?x3600) (ite $x61634 (_ bv60 32) (_ bv59 32)) ?x8246))))
 (let ((?x15656 (ite (= (_ bv6 32) ?x3600) (ite $x61634 (_ bv152 32) (_ bv151 32)) (ite (= (_ bv5 32) ?x3600) (ite $x61634 (_ bv121 32) (_ bv120 32)) ?x15725))))
 (let ((?x3161 (ite (= (_ bv8 32) ?x3600) (ite $x61634 (_ bv213 32) (_ bv212 32)) (ite (= (_ bv7 32) ?x3600) (ite $x61634 (_ bv182 32) (_ bv181 32)) ?x15656))))
 (let ((?x6975 (ite (= (_ bv10 32) ?x3600) (ite $x61634 (_ bv274 32) (_ bv273 32)) (ite (= (_ bv9 32) ?x3600) (ite $x61634 (_ bv244 32) (_ bv243 32)) ?x3161))))
 (let ((?x2778 (ite (= (_ bv12 32) ?x3600) (ite $x61634 (_ bv335 32) (_ bv334 32)) (ite (= (_ bv11 32) ?x3600) (ite $x61634 (_ bv305 32) (_ bv304 32)) ?x6975))))
 (let ((?x3461 (bvadd (bvmul (_ bv365 32) (bvsub ?x4154 (_ bv1 32))) (bvsdiv (bvsub ?x4154 (_ bv1 32)) (_ bv4 32)))))
 (let ((?x20706 (bvadd (bvsub ?x3461 (bvsdiv (bvsub ?x4154 (_ bv1 32)) (_ bv100 32))) (bvsdiv (bvsub ?x4154 (_ bv1 32)) (_ bv400 32)))))
 (let ((?x24318 (bvadd (bvadd (bvsub (bvadd (bvadd ?x20706 ?x2778) (bvsub ?x5160 (_ bv1 32))) (_ bv730179 32)) (_ bv0 32)) (_ bv730179 32))))
 (let ((?x6996 (bvsmod ?x24318 (_ bv146097 32))))
 (let ((?x4836 (bvsdiv ?x6996 (_ bv36524 32))))
 (let ((?x4790 (ite (bvsle (_ bv4 32) ?x4836) (_ bv3 32) ?x4836)))
 (let ((?x24303 (bvsub ?x6996 (bvmul ?x4790 (_ bv36524 32)))))
 (let ((?x3516 (bvsmod ?x24303 (_ bv1461 32))))
 (let ((?x19938 (bvsdiv ?x3516 (_ bv365 32))))
 (let ((?x40932 (ite (bvsle (_ bv4 32) ?x19938) (_ bv3 32) ?x19938)))
 (let ((?x15664 (bvadd (bvadd (bvmul (bvsdiv ?x24318 (_ bv146097 32)) (_ bv400 32)) (bvmul ?x4790 (_ bv100 32))) (bvmul (bvsdiv ?x24303 (_ bv1461 32)) (_ bv4 32)))))
 (let ((?x3153 (bvadd (bvadd ?x15664 ?x40932) (_ bv1 32))))
 (let (($x15460 (or (and (= (bvsmod ?x3153 (_ bv4 32)) (_ bv0 32)) (and (distinct (bvsmod ?x3153 (_ bv100 32)) (_ bv0 32)) true)) (= (bvsmod ?x3153 (_ bv400 32)) (_ bv0 32)))))
 (let ((?x3949 (ite $x15460 (_ bv31 32) (_ bv31 32))))
 (let ((?x40798 (bvsub ?x3516 (bvmul ?x40932 (_ bv365 32)))))
 (let (($x3682 (bvsge ?x40798 ?x3949)))
 (let ((?x1213 (ite $x15460 (_ bv60 32) (_ bv59 32))))
 (let (($x5012 (bvsge ?x40798 ?x1213)))
 (let ((?x6082 (ite $x15460 (_ bv91 32) (_ bv90 32))))
 (let (($x4678 (bvsge ?x40798 ?x6082)))
 (let ((?x2196 (ite $x15460 (_ bv121 32) (_ bv120 32))))
 (let (($x1372 (bvsge ?x40798 ?x2196)))
 (let ((?x3002 (ite $x15460 (_ bv152 32) (_ bv151 32))))
 (let (($x2467 (bvsge ?x40798 ?x3002)))
 (let ((?x2174 (ite $x2467 (_ bv6 32) (ite $x1372 (_ bv5 32) (ite $x4678 (_ bv4 32) (ite $x5012 (_ bv3 32) (ite $x3682 (_ bv2 32) (_ bv1 32))))))))
 (let ((?x26253 (ite $x15460 (_ bv182 32) (_ bv181 32))))
 (let (($x2801 (bvsge ?x40798 ?x26253)))
 (let ((?x1548 (ite $x15460 (_ bv213 32) (_ bv212 32))))
 (let (($x3790 (bvsge ?x40798 ?x1548)))
 (let ((?x18959 (ite $x15460 (_ bv244 32) (_ bv243 32))))
 (let (($x7022 (bvsge ?x40798 ?x18959)))
 (let ((?x1370 (ite $x15460 (_ bv274 32) (_ bv273 32))))
 (let (($x2591 (bvsge ?x40798 ?x1370)))
 (let ((?x827 (ite $x15460 (_ bv305 32) (_ bv304 32))))
 (let (($x928 (bvsge ?x40798 ?x827)))
 (let ((?x26206 (ite $x928 (_ bv11 32) (ite $x2591 (_ bv10 32) (ite $x7022 (_ bv9 32) (ite $x3790 (_ bv8 32) (ite $x2801 (_ bv7 32) ?x2174)))))))
 (let ((?x7058 (ite $x15460 (_ bv335 32) (_ bv334 32))))
 (let (($x3300 (bvsge ?x40798 ?x7058)))
 (let (($x11357 (= (_ bv0 32) (_ bv0 32))))
 (let ((?x1088 (ite $x11357 ?x3600 (ite $x3300 (_ bv12 32) ?x26206))))
 (= x_plus_month ?x1088)))))))))))))))))))))))))))))))))))))))))))))))))))))))))))))))))))))))))))))))))))))))))))))))))))))))))
(assert
 (let ((?x1201 (bvadd x_epoch (_ bv730179 32))))
 (let ((?x33573 (bvsmod ?x1201 (_ bv146097 32))))
 (let ((?x2516 (bvsdiv ?x33573 (_ bv36524 32))))
 (let ((?x15886 (ite (bvsle (_ bv4 32) ?x2516) (_ bv3 32) ?x2516)))
 (let ((?x8168 (bvsub ?x33573 (bvmul ?x15886 (_ bv36524 32)))))
 (let ((?x1140 (bvsmod ?x8168 (_ bv1461 32))))
 (let ((?x1161 (bvsdiv ?x1140 (_ bv365 32))))
 (let ((?x11749 (ite (bvsle (_ bv4 32) ?x1161) (_ bv3 32) ?x1161)))
 (let ((?x3564 (bvadd (bvadd (bvmul (bvsdiv ?x1201 (_ bv146097 32)) (_ bv400 32)) (bvmul ?x15886 (_ bv100 32))) (bvmul (bvsdiv ?x8168 (_ bv1461 32)) (_ bv4 32)))))
 (let ((?x26236 (bvadd (bvadd ?x3564 ?x11749) (_ bv1 32))))
 (let (($x11908 (or (and (= (bvsmod ?x26236 (_ bv4 32)) (_ bv0 32)) (and (distinct (bvsmod ?x26236 (_ bv100 32)) (_ bv0 32)) true)) (= (bvsmod ?x26236 (_ bv400 32)) (_ bv0 32)))))
 (let ((?x2337 (bvsub ?x1140 (bvmul ?x11749 (_ bv365 32)))))
 (let ((?x3734 (ite $x11908 (_ bv31 32) (_ bv31 32))))
 (let (($x5366 (bvsge ?x2337 ?x3734)))
 (let ((?x5792 (ite $x5366 (bvadd (bvsub ?x2337 ?x3734) (_ bv1 32)) (bvadd (bvsub ?x2337 (ite $x11908 (_ bv0 32) (_ bv0 32))) (_ bv1 32)))))
 (let ((?x47417 (ite $x11908 (_ bv60 32) (_ bv59 32))))
 (let (($x805 (bvsge ?x2337 ?x47417)))
 (let ((?x2296 (ite $x11908 (_ bv91 32) (_ bv90 32))))
 (let (($x3364 (bvsge ?x2337 ?x2296)))
 (let ((?x20760 (ite $x3364 (bvadd (bvsub ?x2337 ?x2296) (_ bv1 32)) (ite $x805 (bvadd (bvsub ?x2337 ?x47417) (_ bv1 32)) ?x5792))))
 (let ((?x37289 (ite $x11908 (_ bv121 32) (_ bv120 32))))
 (let (($x1945 (bvsge ?x2337 ?x37289)))
 (let ((?x2125 (ite $x11908 (_ bv152 32) (_ bv151 32))))
 (let (($x5091 (bvsge ?x2337 ?x2125)))
 (let ((?x5445 (ite $x5091 (bvadd (bvsub ?x2337 ?x2125) (_ bv1 32)) (ite $x1945 (bvadd (bvsub ?x2337 ?x37289) (_ bv1 32)) ?x20760))))
 (let ((?x1626 (ite $x11908 (_ bv182 32) (_ bv181 32))))
 (let (($x583 (bvsge ?x2337 ?x1626)))
 (let ((?x3068 (ite $x11908 (_ bv213 32) (_ bv212 32))))
 (let (($x2937 (bvsge ?x2337 ?x3068)))
 (let ((?x701 (ite $x2937 (bvadd (bvsub ?x2337 ?x3068) (_ bv1 32)) (ite $x583 (bvadd (bvsub ?x2337 ?x1626) (_ bv1 32)) ?x5445))))
 (let ((?x1549 (ite $x11908 (_ bv244 32) (_ bv243 32))))
 (let (($x2961 (bvsge ?x2337 ?x1549)))
 (let ((?x8141 (ite $x11908 (_ bv274 32) (_ bv273 32))))
 (let (($x2577 (bvsge ?x2337 ?x8141)))
 (let ((?x596 (ite $x2577 (bvadd (bvsub ?x2337 ?x8141) (_ bv1 32)) (ite $x2961 (bvadd (bvsub ?x2337 ?x1549) (_ bv1 32)) ?x701))))
 (let ((?x903 (ite $x11908 (_ bv305 32) (_ bv304 32))))
 (let (($x1761 (bvsge ?x2337 ?x903)))
 (let ((?x6357 (ite $x11908 (_ bv335 32) (_ bv334 32))))
 (let (($x783 (bvsge ?x2337 ?x6357)))
 (let ((?x42519 (ite $x783 (bvadd (bvsub ?x2337 ?x6357) (_ bv1 32)) (ite $x1761 (bvadd (bvsub ?x2337 ?x903) (_ bv1 32)) ?x596))))
 (let ((?x7854 (bvadd (bvmul (_ bv0 32) (_ bv12 32)) (_ bv1 32))))
 (let ((?x61399 (ite $x5091 (_ bv6 32) (ite $x1945 (_ bv5 32) (ite $x3364 (_ bv4 32) (ite $x805 (_ bv3 32) (ite $x5366 (_ bv2 32) (_ bv1 32))))))))
 (let ((?x6068 (ite $x1761 (_ bv11 32) (ite $x2577 (_ bv10 32) (ite $x2961 (_ bv9 32) (ite $x2937 (_ bv8 32) (ite $x583 (_ bv7 32) ?x61399)))))))
 (let ((?x11059 (ite $x783 (_ bv12 32) ?x6068)))
 (let ((?x1118 (bvadd ?x11059 ?x7854)))
 (let ((?x3973 (bvsub (ite (bvuge ?x1118 (_ bv2147483648 32)) (bvsub ?x1118 (_ bv0 32)) ?x1118) (_ bv1 32))))
 (let ((?x7263 (bvsmod ?x3973 (_ bv12 32))))
 (let ((?x3600 (bvadd ?x7263 (_ bv1 32))))
 (let ((?x3476 (ite (or (= ?x3600 (_ bv4 32)) (= ?x3600 (_ bv6 32)) (= ?x3600 (_ bv9 32)) (= ?x3600 (_ bv11 32))) (_ bv30 32) (_ bv31 32))))
 (let ((?x2769 (bvsdiv ?x3973 (_ bv12 32))))
 (let ((?x6867 (ite (and (bvuge ?x3973 (_ bv2147483648 32)) (and (distinct (_ bv0 32) ?x7263) true)) (bvsub ?x2769 (_ bv1 32)) ?x2769)))
 (let ((?x28626 (bvadd (_ bv0 32) ?x6867)))
 (let ((?x4154 (bvadd ?x26236 ?x28626)))
 (let (($x61634 (or (and (= (bvsmod ?x4154 (_ bv4 32)) (_ bv0 32)) (and (distinct (bvsmod ?x4154 (_ bv100 32)) (_ bv0 32)) true)) (= (bvsmod ?x4154 (_ bv400 32)) (_ bv0 32)))))
 (let ((?x6093 (ite (= ?x3600 (_ bv2 32)) (ite $x61634 (_ bv29 32) (_ bv28 32)) ?x3476)))
 (let ((?x3713 (ite (bvsgt (_ bv1 32) ?x42519) (_ bv1 32) (ite (bvsgt ?x42519 ?x6093) ?x6093 ?x42519))))
 (let ((?x5160 (ite (bvsgt (_ bv1 32) ?x3713) (_ bv1 32) (ite (bvsgt ?x3713 ?x6093) ?x6093 ?x3713))))
 (let ((?x8246 (ite (= (_ bv2 32) ?x3600) (ite $x61634 (_ bv31 32) (_ bv31 32)) (ite (= (_ bv1 32) ?x3600) (ite $x61634 (_ bv0 32) (_ bv0 32)) (_ bv0 32)))))
 (let ((?x15725 (ite (= (_ bv4 32) ?x3600) (ite $x61634 (_ bv91 32) (_ bv90 32)) (ite (= (_ bv3 32) ?x3600) (ite $x61634 (_ bv60 32) (_ bv59 32)) ?x8246))))
 (let ((?x15656 (ite (= (_ bv6 32) ?x3600) (ite $x61634 (_ bv152 32) (_ bv151 32)) (ite (= (_ bv5 32) ?x3600) (ite $x61634 (_ bv121 32) (_ bv120 32)) ?x15725))))
 (let ((?x3161 (ite (= (_ bv8 32) ?x3600) (ite $x61634 (_ bv213 32) (_ bv212 32)) (ite (= (_ bv7 32) ?x3600) (ite $x61634 (_ bv182 32) (_ bv181 32)) ?x15656))))
 (let ((?x6975 (ite (= (_ bv10 32) ?x3600) (ite $x61634 (_ bv274 32) (_ bv273 32)) (ite (= (_ bv9 32) ?x3600) (ite $x61634 (_ bv244 32) (_ bv243 32)) ?x3161))))
 (let ((?x2778 (ite (= (_ bv12 32) ?x3600) (ite $x61634 (_ bv335 32) (_ bv334 32)) (ite (= (_ bv11 32) ?x3600) (ite $x61634 (_ bv305 32) (_ bv304 32)) ?x6975))))
 (let ((?x3461 (bvadd (bvmul (_ bv365 32) (bvsub ?x4154 (_ bv1 32))) (bvsdiv (bvsub ?x4154 (_ bv1 32)) (_ bv4 32)))))
 (let ((?x20706 (bvadd (bvsub ?x3461 (bvsdiv (bvsub ?x4154 (_ bv1 32)) (_ bv100 32))) (bvsdiv (bvsub ?x4154 (_ bv1 32)) (_ bv400 32)))))
 (let ((?x24318 (bvadd (bvadd (bvsub (bvadd (bvadd ?x20706 ?x2778) (bvsub ?x5160 (_ bv1 32))) (_ bv730179 32)) (_ bv0 32)) (_ bv730179 32))))
 (let ((?x6996 (bvsmod ?x24318 (_ bv146097 32))))
 (let ((?x4836 (bvsdiv ?x6996 (_ bv36524 32))))
 (let ((?x4790 (ite (bvsle (_ bv4 32) ?x4836) (_ bv3 32) ?x4836)))
 (let ((?x24303 (bvsub ?x6996 (bvmul ?x4790 (_ bv36524 32)))))
 (let ((?x3516 (bvsmod ?x24303 (_ bv1461 32))))
 (let ((?x19938 (bvsdiv ?x3516 (_ bv365 32))))
 (let ((?x40932 (ite (bvsle (_ bv4 32) ?x19938) (_ bv3 32) ?x19938)))
 (let ((?x15664 (bvadd (bvadd (bvmul (bvsdiv ?x24318 (_ bv146097 32)) (_ bv400 32)) (bvmul ?x4790 (_ bv100 32))) (bvmul (bvsdiv ?x24303 (_ bv1461 32)) (_ bv4 32)))))
 (let ((?x3153 (bvadd (bvadd ?x15664 ?x40932) (_ bv1 32))))
 (let (($x15460 (or (and (= (bvsmod ?x3153 (_ bv4 32)) (_ bv0 32)) (and (distinct (bvsmod ?x3153 (_ bv100 32)) (_ bv0 32)) true)) (= (bvsmod ?x3153 (_ bv400 32)) (_ bv0 32)))))
 (let ((?x40798 (bvsub ?x3516 (bvmul ?x40932 (_ bv365 32)))))
 (let ((?x3949 (ite $x15460 (_ bv31 32) (_ bv31 32))))
 (let (($x3682 (bvsge ?x40798 ?x3949)))
 (let ((?x45950 (ite $x3682 (bvadd (bvsub ?x40798 ?x3949) (_ bv1 32)) (bvadd (bvsub ?x40798 (ite $x15460 (_ bv0 32) (_ bv0 32))) (_ bv1 32)))))
 (let ((?x1213 (ite $x15460 (_ bv60 32) (_ bv59 32))))
 (let (($x5012 (bvsge ?x40798 ?x1213)))
 (let ((?x6082 (ite $x15460 (_ bv91 32) (_ bv90 32))))
 (let (($x4678 (bvsge ?x40798 ?x6082)))
 (let ((?x3892 (ite $x4678 (bvadd (bvsub ?x40798 ?x6082) (_ bv1 32)) (ite $x5012 (bvadd (bvsub ?x40798 ?x1213) (_ bv1 32)) ?x45950))))
 (let ((?x2196 (ite $x15460 (_ bv121 32) (_ bv120 32))))
 (let (($x1372 (bvsge ?x40798 ?x2196)))
 (let ((?x3002 (ite $x15460 (_ bv152 32) (_ bv151 32))))
 (let (($x2467 (bvsge ?x40798 ?x3002)))
 (let ((?x80342 (ite $x2467 (bvadd (bvsub ?x40798 ?x3002) (_ bv1 32)) (ite $x1372 (bvadd (bvsub ?x40798 ?x2196) (_ bv1 32)) ?x3892))))
 (let ((?x26253 (ite $x15460 (_ bv182 32) (_ bv181 32))))
 (let (($x2801 (bvsge ?x40798 ?x26253)))
 (let ((?x1548 (ite $x15460 (_ bv213 32) (_ bv212 32))))
 (let (($x3790 (bvsge ?x40798 ?x1548)))
 (let ((?x6597 (ite $x3790 (bvadd (bvsub ?x40798 ?x1548) (_ bv1 32)) (ite $x2801 (bvadd (bvsub ?x40798 ?x26253) (_ bv1 32)) ?x80342))))
 (let ((?x18959 (ite $x15460 (_ bv244 32) (_ bv243 32))))
 (let (($x7022 (bvsge ?x40798 ?x18959)))
 (let ((?x1370 (ite $x15460 (_ bv274 32) (_ bv273 32))))
 (let (($x2591 (bvsge ?x40798 ?x1370)))
 (let ((?x6713 (ite $x2591 (bvadd (bvsub ?x40798 ?x1370) (_ bv1 32)) (ite $x7022 (bvadd (bvsub ?x40798 ?x18959) (_ bv1 32)) ?x6597))))
 (let ((?x827 (ite $x15460 (_ bv305 32) (_ bv304 32))))
 (let (($x928 (bvsge ?x40798 ?x827)))
 (let ((?x7058 (ite $x15460 (_ bv335 32) (_ bv334 32))))
 (let (($x3300 (bvsge ?x40798 ?x7058)))
 (let ((?x7262 (ite $x3300 (bvadd (bvsub ?x40798 ?x7058) (_ bv1 32)) (ite $x928 (bvadd (bvsub ?x40798 ?x827) (_ bv1 32)) ?x6713))))
 (let (($x11357 (= (_ bv0 32) (_ bv0 32))))
 (let ((?x3740 (ite $x11357 ?x5160 ?x7262)))
 (= x_plus_day ?x3740)))))))))))))))))))))))))))))))))))))))))))))))))))))))))))))))))))))))))))))))))))))))))))))))))))))))))))))
(assert
 (bvsle (_ bv4294930771 32) x_plus_1_epoch))
(assert
 (bvsge (_ bv36523 32) x_plus_1_epoch))
(assert
 (= x_plus_1_epoch (bvadd x_epoch (_ bv30 32))))
(assert
 (not (= x_plus_epoch x_plus_1_epoch)))
(check-sat)
